# Solution for model obj
# Objective value = 129
x_0_5 0
x_0_7 0
x_0_6 1
x_0_8 0
x_0_3 0
x_1_6 0
x_1_5 1
x_1_0 0
x_1_4 0
x_1_7 0
x_2_4 1
x_2_0 0
x_2_7 0
x_2_2 0
x_2_8 0
x_3_6 0
x_3_5 0
x_3_7 0
x_3_0 1
x_3_8 0
x_4_1 1
x_4_6 0
x_4_7 0
x_4_5 0
x_4_0 0
x_5_0 1
x_5_7 0
x_5_4 0
x_5_2 0
x_5_8 0
x_6_5 0
x_6_7 1
x_6_6 0
x_6_2 0
x_6_8 0
x_7_7 0
x_7_0 0
x_7_4 0
x_7_2 1
x_7_8 0
x_8_5 0
x_8_7 0
x_8_6 0
x_8_2 0
x_8_8 1
x_9_2 0
x_9_6 0
x_9_5 0
x_9_8 1
x_9_3 0
x_10_6 0
x_10_4 0
x_10_0 0
x_10_8 0
x_10_3 1
